Route #1: 115 114 106 107 108 109 120
Route #2: 78 133 68 70 69 110 124 112 125 111 123 122 121 127 126 128 129 113 81
Route #3: 66 71 33 80 67 79 63 64 77 74 73
Route #4: 134 76 32 34 48 49 50 51 52 53 54 58 30 31 59 60 23 22 24
Route #5: 72 47 75 1 62 55 103 102 101 35 36 100 99 98 37 95 39 38 96 97 104 56 105 57 61
Route #6: 20 82 83 84 85 86 87 89 90 92 16 13 15 88 14 12 11 10 9 8 7 6 5 4 2 42 41 3 40 44 43 45 93 94 29 28 27 26 25 21 91
Route #7: 46 118 17 18 132 116 131 117 119 130 65 19
Cost 1165
Time 0.253767
